# Solution for model r3_t18_m2_1 Batch Number: 3
# Finished Task: 17 / 18
# Makespan: 807.0, Total Distance: 394.0, Total Time: 1.4968
# R O S F Batch
0 0 19 0.0 0.0 -1
1 1 6 0.0 0.0 -1
2 2 7 0.0 0.0 -1
3 -1 -1 -1.0 -1.0 0
4 2 10 505.0 539.0 0
5 2 12 312.0 333.0 0
6 1 18 306.0 329.0 0
7 2 5 274.0 312.0 0
8 2 17 670.0 703.0 2
9 0 16 606.0 633.0 0
10 2 8 600.0 633.0 0
11 1 15 703.0 724.0 2
12 2 13 352.0 376.0 0
13 2 20 409.0 431.0 0
14 2 -1 780.0 807.0 2
15 1 -1 750.0 778.0 2
16 0 -1 657.0 687.0 1
17 2 14 720.0 747.0 2
18 1 11 404.0 438.0 0
19 0 9 551.0 578.0 0
20 2 4 450.0 482.0 0
